NAME: ../File/prFile/tspFile/tsp_file43.tsp
COMMENT: TSP file generated by Python
TYPE: TSP
DIMENSION: 30
EDGE_WEIGHT_TYPE: EUC_2D
NODE_COORD_SECTION
1 3 90
2 1 100
3 100 35
4 99 96
5 30 55
6 70 27
7 10 94
8 76 79
9 59 84
10 42 18
11 7 4
12 6 88
13 43 86
14 53 84
15 1 98
16 72 71
17 13 80
18 34 27
19 4 57
20 37 60
21 5 47
22 9 52
23 9 12
24 85 97
25 73 36
26 28 57
27 9 39
28 48 13
29 64 15
30 77 3
EOF
